NAME: rue_25_4
TYPE: TSP
DIMENSION: 25
EDGE_WEIGHT_TYPE: EUC_2D
NODE_COORD_SECTION
1 8 34
2 27 40
3 24 13
4 17 27
5 24 15
6 15 20
7 7 1
8 25 5
9 5 32
10 29 14
11 29 25
12 20 25
13 19 27
14 29 4
15 19 40
16 23 37
17 27 20
18 31 36
19 1 30
20 3 3
21 26 38
22 22 7
23 18 3
24 33 14
25 30 14

